Maximize
  0 x0 - 15 x1 + 0 x2 + 19 x3 + 0 x4 - 17 x5 + 25 x6 + 0 x7 + 0 x8 + 0 x9
   + 0 x10 + 0 x11 + 0 x12 - 11 x13 + 31 x14 + 0 x15 + 0 x16 + 0 x17
   + 0 x18 + 0 x19 + 0 x20 + 0 x21 + 0 x22 + 0 x23 - 11 x24 + 0 x25 + 0 x26
   + 0 x27 + 0 x28 - 6 x29 + 0 x30 + 0 x31 + 0 x32 + 0 x33 + 0 x34 + 3 x35
   + 22 x36 + 0 x37 - 29 x38 + 0 x39 + [ 18 x0 * x1 - 12 x0 * x3
   + 28 x0 * x6 + 50 x0 * x7 + 86 x0 * x8 - 72 x0 * x9 - 42 x0 * x10
   + 22 x0 * x11 - 86 x0 * x15 - 68 x0 * x20 + 6 x0 * x23 - 96 x0 * x25
   + 86 x0 * x26 + 32 x0 * x32 + 82 x0 * x34 - 70 x0 * x36 - 40 x0 * x38
   - 30 x1 * x4 - 52 x1 * x5 - 94 x1 * x6 - 30 x1 * x9 - 34 x1 * x14
   + 22 x1 * x16 + 72 x1 * x17 - 42 x1 * x21 + 82 x1 * x23 + 88 x1 * x24
   - 82 x1 * x27 + 26 x1 * x29 - 52 x1 * x34 + 6 x1 * x35 + 58 x1 * x36
   - 16 x1 * x38 + 24 x2 ^2 + 4 x2 * x3 + 30 x2 * x8 + 84 x2 * x9
   - 64 x2 * x13 + 96 x2 * x15 - 48 x2 * x16 - 90 x2 * x17 + 80 x2 * x18
   - 84 x2 * x20 + 90 x2 * x21 - 78 x2 * x22 + 40 x2 * x23 - 74 x2 * x26
   - 16 x2 * x29 - 2 x2 * x30 + 28 x2 * x31 - 56 x2 * x33 + 58 x2 * x35
   - 82 x2 * x36 + 66 x2 * x37 - 84 x2 * x38 - 90 x3 * x7 - 68 x3 * x9
   - 70 x3 * x12 - 58 x3 * x15 - 58 x3 * x16 - 80 x3 * x18 - 18 x3 * x20
   - 26 x3 * x23 - 80 x3 * x27 - 92 x3 * x36 - 68 x3 * x39 + 45 x4 ^2
   + 20 x4 * x5 + 86 x4 * x11 - 16 x4 * x12 - 62 x4 * x13 - 36 x4 * x16
   + 30 x4 * x17 + 16 x4 * x18 - 4 x4 * x19 + 24 x4 * x21 - 68 x4 * x22
   - 76 x4 * x35 + 76 x4 * x38 + 21 x5 ^2 - 16 x5 * x7 - 30 x5 * x8
   - 98 x5 * x11 - 98 x5 * x12 - 34 x5 * x13 - 70 x5 * x15 - 98 x5 * x16
   - 52 x5 * x17 + 36 x5 * x19 - 98 x5 * x23 - 52 x5 * x26 - 92 x5 * x30
   - 2 x5 * x35 + 4 x5 * x38 - 29 x6 ^2 + 24 x6 * x12 - 86 x6 * x19
   + 22 x6 * x22 - 8 x6 * x23 + 88 x6 * x29 - 34 x6 * x30 + 90 x6 * x31
   - 12 x6 * x32 - 94 x6 * x35 + 24 x6 * x36 - 92 x7 * x10 - 36 x7 * x14
   + 22 x7 * x15 + 8 x7 * x17 + 30 x7 * x21 - 20 x7 * x25 - 94 x7 * x29
   - 42 x7 * x30 - 82 x7 * x32 + 32 x7 * x33 - 2 x7 * x37 + 52 x8 * x10
   - 10 x8 * x14 + 10 x8 * x15 + 76 x8 * x24 + 44 x8 * x25 - 70 x8 * x26
   - 90 x8 * x29 - 2 x8 * x30 - 74 x8 * x32 + 28 x8 * x33 - 34 x8 * x35
   - 36 x8 * x39 + 20 x9 ^2 - 4 x9 * x11 - 94 x9 * x16 + 54 x9 * x18
   - 2 x9 * x22 + 48 x9 * x23 + 96 x9 * x24 + 22 x9 * x25 - 96 x9 * x28
   - 68 x9 * x30 - 70 x9 * x32 + 86 x9 * x36 + 82 x9 * x38 - 26 x9 * x39
   + 26 x10 * x12 - 12 x10 * x14 - 26 x10 * x21 + 42 x10 * x22
   + 56 x10 * x24 + 36 x10 * x25 + 18 x10 * x32 - 42 x11 * x14
   + 46 x11 * x16 - 18 x11 * x17 + 78 x11 * x20 - 74 x11 * x21
   - 16 x11 * x24 - 6 x11 * x25 - 8 x11 * x28 - 24 x11 * x33 + 68 x11 * x38
   - 62 x11 * x39 - 37 x12 ^2 - 80 x12 * x14 - 36 x12 * x22 - 88 x12 * x24
   - 54 x12 * x25 + 22 x12 * x28 + 54 x12 * x30 + 34 x12 * x35 - 35 x13 ^2
   - 70 x13 * x16 + 16 x13 * x19 - 2 x13 * x20 - 98 x13 * x26
   + 34 x13 * x29 + 2 x13 * x33 - 28 x13 * x34 + 18 x13 * x35
   - 34 x13 * x39 + 78 x14 * x15 - 40 x14 * x16 + 6 x14 * x18
   - 98 x14 * x20 - 86 x14 * x23 + 74 x14 * x25 + 96 x14 * x26
   - 32 x14 * x32 + 84 x14 * x34 + 26 x15 * x16 - 74 x15 * x18
   + 48 x15 * x19 + 46 x15 * x20 + 4 x15 * x22 + 32 x15 * x31
   - 12 x15 * x37 - 28 x15 * x39 + 58 x16 * x18 - 54 x16 * x20
   + 4 x16 * x22 + 92 x16 * x26 - 24 x16 * x30 + 80 x16 * x32
   + 24 x16 * x34 - 32 x16 * x35 - 16 x16 * x36 - 20 x16 * x37 - 34 x17 ^2
   + 38 x17 * x24 + 32 x17 * x25 + 58 x17 * x27 + 28 x17 * x28
   + 26 x17 * x29 - 4 x17 * x30 + 22 x17 * x31 - 20 x17 * x32
   - 34 x17 * x33 - 34 x17 * x34 - 16 x17 * x36 - 32 x17 * x37
   + 16 x18 * x20 + 62 x18 * x22 + 78 x18 * x23 + 8 x18 * x25
   + 90 x18 * x26 - 68 x18 * x33 + 42 x18 * x34 + 12 x18 * x37 - 25 x19 ^2
   - 96 x19 * x21 - 16 x19 * x22 - 16 x19 * x27 - 86 x19 * x29
   + 16 x19 * x31 + 52 x19 * x34 + 68 x19 * x35 - 34 x19 * x36
   - 46 x20 * x24 - 80 x20 * x28 - 84 x20 * x33 - 34 x20 * x39
   + 48 x21 * x24 - 62 x21 * x26 + 48 x21 * x27 + 50 x21 * x29
   - 72 x21 * x31 - 94 x21 * x32 - 52 x21 * x33 + 28 x22 * x23
   + 52 x22 * x29 + 12 x22 * x30 - 32 x22 * x32 - 38 x22 * x33
   - 88 x22 * x35 - 52 x22 * x37 + 30 x22 * x39 - 10 x23 ^2 - 58 x23 * x29
   - 72 x23 * x30 - 64 x23 * x31 - 78 x23 * x32 - 40 x23 * x35
   - 52 x23 * x38 - 6 x24 * x27 + 18 x24 * x29 - 44 x24 * x32
   + 72 x24 * x33 - 82 x24 * x35 + 32 x24 * x39 - 20 x25 * x27
   - 48 x25 * x29 - 70 x25 * x34 + 70 x25 * x35 - 32 x25 * x36
   - 78 x25 * x38 - 70 x26 * x27 - 58 x26 * x32 - 42 x26 * x33
   + 88 x26 * x34 + 64 x26 * x38 - 78 x26 * x39 + 32 x27 * x29
   + 8 x27 * x31 + 56 x27 * x34 - 94 x27 * x38 - 88 x27 * x39 - 30 x28 ^2
   + 22 x28 * x34 - 26 x28 * x35 + 68 x28 * x36 + 26 x28 * x37
   + 78 x28 * x38 + 96 x29 * x30 - 46 x29 * x31 + 26 x29 * x32
   + 86 x29 * x37 - 12 x29 * x38 - 21 x30 ^2 + 50 x30 * x32 - 86 x30 * x33
   - 66 x30 * x37 + 76 x31 * x35 - 42 x31 * x38 + 40 x31 * x39 - 15 x32 ^2
   - 66 x32 * x34 + 62 x32 * x36 + 90 x32 * x37 - 28 x32 * x38 + 14 x33 ^2
   + 20 x33 * x35 + 74 x33 * x38 + 72 x34 * x36 + 62 x34 * x37
   - 58 x34 * x39 - 10 x35 ^2 - 40 x35 * x37 + 88 x35 * x39 - 72 x38 * x39
   + 15 x39 ^2 ] / 2 
Subject To
Bounds
 x0 <= 1
 x1 <= 1
 x2 <= 1
 x3 <= 1
 x4 <= 1
 x5 <= 1
 x6 <= 1
 x7 <= 1
 x8 <= 1
 x9 <= 1
 x10 <= 1
 x11 <= 1
 x12 <= 1
 x13 <= 1
 x14 <= 1
 x15 <= 1
 x16 <= 1
 x17 <= 1
 x18 <= 1
 x19 <= 1
 x20 <= 1
 x21 <= 1
 x22 <= 1
 x23 <= 1
 x24 <= 1
 x25 <= 1
 x26 <= 1
 x27 <= 1
 x28 <= 1
 x29 <= 1
 x30 <= 1
 x31 <= 1
 x32 <= 1
 x33 <= 1
 x34 <= 1
 x35 <= 1
 x36 <= 1
 x37 <= 1
 x38 <= 1
 x39 <= 1
End
